out/bwp_10_9_1_lp.out
6
0 0    3 1
4 0    5 3
6 0    7 3
8 0    9 3
0 4    3 5
5 4    8 5
0 2    0 2
4 4    4 4
9 5    9 5
